1758671
21, 3, 25, 30, 41, 64, 67, 38, 43, 7, 34, 46, 55, 26, 66, 11, 6, 29, 23, 49, 19, 60, 5, 40, 56, 32, 12, 42, 61, 24, 1, 54, 13, 47, 48, 2, 9, 15, 8, 36, 59, 16, 50, 28, 31, 52, 22, 33, 57, 18, 14, 10, 44, 53, 37, 39, 62, 51, 35, 68, 58, 17, 27, 45, 65, 20, 4, 63
